% The MIT License (MIT)
%
% Permission is hereby granted, free of charge, to any person obtaining a copy
% of this software and associated documentation files (the "Software"), to deal
% in the Software without restriction, including without limitation the rights
% to use, copy, modify, merge, publish, distribute, sublicense, and/or sell
% copies of the Software, and to permit persons to whom the Software is
% furnished to do so, subject to the following conditions:
%
% The above copyright notice and this permission notice shall be included in
% all copies or substantial portions of the Software.
%
% THE SOFTWARE IS PROVIDED "AS IS", WITHOUT WARRANTY OF ANY KIND, EXPRESS OR
% IMPLIED, INCLUDING BUT NOT LIMITED TO THE WARRANTIES OF MERCHANTABILITY,
% FITNESS FOR A PARTICULAR PURPOSE AND NONINFRINGEMENT. IN NO EVENT SHALL THE
% AUTHORS OR COPYRIGHT HOLDERS BE LIABLE FOR ANY CLAIM, DAMAGES OR OTHER
% LIABILITY, WHETHER IN AN ACTION OF CONTRACT, TORT OR OTHERWISE, ARISING FROM,
% OUT OF OR IN CONNECTION WITH THE SOFTWARE OR THE USE OR OTHER DEALINGS IN
% THE SOFTWARE.

% Vehicle Routing Problem Instance
num_vehicles = 4;
num_customers = 8;
vehicle_capacities = [500, 500, 500, 250];
predicted_demands = [0, 12, 25, 8, 9, 10, 19, 15, 24];
predicted_ETAs = 
  [| 0, 36, 29, 34, 30, 34, 25, 30, 32
   | 36, 0, 40, 38, 34, 32, 32, 38, 31
   | 29, 40, 0, 31, 32, 18, 24, 21, 20
   | 34, 38, 31, 0, 36, 37, 28, 31, 15
   | 30, 34, 32, 36, 0, 15, 35, 30, 34
   | 34, 32, 18, 37, 15, 0, 21, 26, 34
   | 25, 32, 24, 28, 35, 21, 0, 28, 17
   | 30, 38, 21, 31, 30, 26, 28, 0, 23
   | 32, 31, 20, 15, 34, 34, 17, 23, 0 |];
